317,142
616,-8
654,321
598,150
667,494
690,465
707,393
653,415
681,286
1117,89
1081,202
1045,142
1137,258
1006,457
1023,517
721,486
580,719
681,736
746,820
894,298
923,230
926,-75
820,-21
601,366
521,487
653,583
625,761
885,806
996,177
972,195
787,300
735,512
196,249
414,542
311,526
441,528
